p cnf 59 208
4 2 0
4 3 0
-2 -3 -4 0
-1 -4 -5 0
1 4 -5 0
-1 4 5 0
1 -4 5 0
7 -1 0
7 -1 0
1 -7 0
8 6 0
8 7 0
-6 -7 -8 0
2 9 -10 0
-2 -9 -10 0
2 -9 10 0
-2 9 10 0
11 -8 0
11 10 0
8 -10 -11 0
-13 11 0
-13 -12 0
-11 12 13 0
-5 13 -14 0
5 -13 -14 0
-5 -13 14 0
5 13 14 0
-15 -2 -16 0
15 2 -16 0
-15 2 16 0
15 -2 16 0
-17 -4 0
-17 -3 0
4 3 17 0
18 -16 0
18 17 0
16 -17 -18 0
-19 -14 0
-19 -18 0
14 18 19 0
21 -20 0
21 -6 0
20 6 -21 0
22 -6 0
22 -21 0
6 21 -22 0
-23 19 0
-23 22 0
-19 -22 23 0
-24 5 0
-24 -4 0
-5 4 24 0
-26 -17 0
-26 25 0
17 -25 26 0
-28 16 0
-28 -27 0
-16 27 28 0
29 -28 0
29 -3 0
28 3 -29 0
30 -20 0
30 12 0
20 -12 -30 0
-31 -29 0
-31 30 0
29 -30 31 0
26 31 -32 0
-26 -31 -32 0
26 -31 32 0
-26 31 32 0
-33 24 0
-33 -32 0
-24 32 33 0
-34 1 0
-34 4 0
-1 -4 34 0
3 27 -35 0
-3 -27 -35 0
3 -27 35 0
-3 27 35 0
36 21 0
36 4 0
-21 -4 -36 0
37 36 0
37 -2 0
-36 2 -37 0
38 35 0
38 -37 0
-35 37 -38 0
39 5 0
39 -15 0
-5 15 -39 0
40 5 0
40 9 0
-5 -9 -40 0
-41 40 0
-41 -4 0
-40 4 41 0
-39 41 -42 0
39 -41 -42 0
-39 -41 42 0
39 41 42 0
-43 -42 0
-43 -16 0
42 16 43 0
44 38 0
44 -43 0
-38 43 -44 0
-45 -9 0
-45 15 0
9 -15 45 0
46 40 0
46 -39 0
-40 39 -46 0
45 -46 -47 0
-45 46 -47 0
45 46 47 0
-45 -46 47 0
48 27 0
48 47 0
-27 -47 -48 0
49 44 0
49 48 0
-44 -48 -49 0
-34 -49 -50 0
34 49 -50 0
-34 49 50 0
34 -49 50 0
-33 -50 -51 0
33 50 -51 0
-33 50 51 0
33 -50 51 0
-52 -16 0
-52 8 0
16 -8 52 0
-53 -7 0
-53 12 0
7 -12 53 0
54 -53 0
54 -5 0
53 5 -54 0
-55 52 0
-55 -54 0
-52 54 55 0
56 51 0
56 -55 0
-51 55 -56 0
-27 29 -57 0
27 -29 -57 0
-27 -29 57 0
27 29 57 0
-56 -57 -58 0
56 57 -58 0
-56 57 58 0
56 -57 58 0
59 23 0
59 -58 0
-23 58 -59 0
-8 13 39 -57 -15 1 0
28 50 -1 -57 0
-22 -48 0
-17 45 40 36 0
26 -54 12 46 17 0
-47 37 -26 0
-44 -2 -3 9 -37 0
20 -48 -59 46 14 17 0
-2 -49 43 0
-43 -17 9 41 40 0
29 12 0
9 7 59 27 23 0
-37 -50 -57 -59 0
58 -2 -14 39 -1 0
57 4 0
32 -28 21 0
15 -49 40 -11 45 0
51 -58 23 0
29 42 -46 13 36 0
46 38 31 1 0
5 -31 0
-45 22 0
48 3 0
55 50 39 33 0
57 21 0
24 -9 41 43 33 -52 0
-22 42 -19 0
14 19 45 0
40 0
4 -11 -37 0
38 1 39 -9 32 0
-10 39 54 0
38 37 -49 55 -14 0
-34 28 -26 55 0
-4 34 31 0
-12 -11 46 -27 0
41 -30 -15 6 26 -53 0
25 -33 47 59 32 0
34 12 -2 -33 22 0
41 5 37 0
34 -4 13 0
-43 -53 0
41 -55 -29 42 0
51 24 47 0
-15 -6 59 -51 -8 -56 0
-59 54 -23 0
-8 -45 -46 0
35 -4 -37 -59 -58 0
59 0
